language ESSENCE' 1.0

letting C_FunctionND be
        [[0, 0, 0, 0, 0, 0, 0, 0, 0, 0, 0, 0, 0, 0, 0, 0, 0, 0; int(0..17)],
         [1, 0, 0, 0, 0, 0, 0, 0, 0, 0, 0, 0, 0, 0, 0, 0, 0, 0; int(0..17)],
         [1, 0, 0, 0, 0, 0, 0, 0, 0, 0, 0, 0, 0, 0, 0, 0, 0, 0; int(0..17)],
         [1, 0, 0, 0, 0, 0, 0, 0, 0, 0, 0, 0, 0, 0, 0, 0, 0, 0; int(0..17)],
         [1, 0, 0, 0, 0, 0, 0, 0, 0, 0, 0, 0, 0, 0, 0, 0, 0, 0; int(0..17)],
         [1, 0, 0, 0, 0, 0, 0, 0, 0, 0, 0, 0, 0, 0, 0, 0, 0, 0; int(0..17)],
         [1, 0, 0, 0, 0, 0, 0, 0, 0, 0, 0, 0, 0, 0, 0, 0, 0, 0; int(0..17)],
         [1, 0, 0, 0, 0, 0, 0, 0, 0, 0, 0, 0, 0, 0, 0, 0, 0, 0; int(0..17)],
         [1, 0, 0, 0, 0, 0, 0, 0, 0, 0, 0, 0, 0, 0, 0, 0, 0, 0; int(0..17)],
         [0, 1, 0, 0, 1, 0, 0, 0, 0, 0, 0, 0, 0, 0, 0, 0, 0, 0; int(0..17)],
         [0, 1, 0, 0, 0, 0, 0, 1, 0, 0, 0, 0, 0, 0, 0, 0, 0, 0; int(0..17)],
         [0, 0, 1, 1, 0, 0, 0, 0, 0, 0, 0, 0, 0, 0, 0, 0, 0, 0; int(0..17)],
         [0, 0, 1, 0, 0, 0, 1, 0, 0, 0, 0, 0, 0, 0, 0, 0, 0, 0; int(0..17)],
         [0, 0, 0, 1, 0, 1, 0, 0, 0, 0, 0, 0, 0, 0, 0, 0, 0, 0; int(0..17)],
         [0, 0, 0, 0, 1, 1, 0, 0, 0, 0, 0, 0, 0, 0, 0, 0, 0, 0; int(0..17)],
         [0, 0, 0, 0, 0, 0, 1, 0, 1, 0, 0, 0, 0, 0, 0, 0, 0, 0; int(0..17)],
         [0, 0, 0, 0, 0, 0, 0, 1, 1, 0, 0, 0, 0, 0, 0, 0, 0, 0; int(0..17)],
         [0, 0, 0, 0, 0, 0, 0, 0, 0, 1, 1, 1, 1, 1, 1, 1, 1, 0; int(0..17)];
             int(0..17)]
$ Visualisation for C_FunctionND
$ 0 0 0 0 0 0 0 0 0 0 0 0 0 0 0 0 0 0
$ 1 0 0 0 0 0 0 0 0 0 0 0 0 0 0 0 0 0
$ 1 0 0 0 0 0 0 0 0 0 0 0 0 0 0 0 0 0
$ 1 0 0 0 0 0 0 0 0 0 0 0 0 0 0 0 0 0
$ 1 0 0 0 0 0 0 0 0 0 0 0 0 0 0 0 0 0
$ 1 0 0 0 0 0 0 0 0 0 0 0 0 0 0 0 0 0
$ 1 0 0 0 0 0 0 0 0 0 0 0 0 0 0 0 0 0
$ 1 0 0 0 0 0 0 0 0 0 0 0 0 0 0 0 0 0
$ 1 0 0 0 0 0 0 0 0 0 0 0 0 0 0 0 0 0
$ 0 1 0 0 1 0 0 0 0 0 0 0 0 0 0 0 0 0
$ 0 1 0 0 0 0 0 1 0 0 0 0 0 0 0 0 0 0
$ 0 0 1 1 0 0 0 0 0 0 0 0 0 0 0 0 0 0
$ 0 0 1 0 0 0 1 0 0 0 0 0 0 0 0 0 0 0
$ 0 0 0 1 0 1 0 0 0 0 0 0 0 0 0 0 0 0
$ 0 0 0 0 1 1 0 0 0 0 0 0 0 0 0 0 0 0
$ 0 0 0 0 0 0 1 0 1 0 0 0 0 0 0 0 0 0
$ 0 0 0 0 0 0 0 1 1 0 0 0 0 0 0 0 0 0
$ 0 0 0 0 0 0 0 0 0 1 1 1 1 1 1 1 1 0

letting J_FunctionND be
        [[0, 1, 2, 3, 4, 5, 6, 7, 8, 9, 10, 11, 12, 13, 14, 15, 16, 17; int(0..17)],
         [1, 1, 17, 17, 9, 17, 17, 10, 17, 9, 10, 17, 17, 17, 17, 17, 17, 17; int(0..17)],
         [2, 17, 2, 11, 17, 17, 12, 17, 17, 17, 17, 11, 12, 17, 17, 17, 17, 17; int(0..17)],
         [3, 17, 11, 3, 17, 13, 17, 17, 17, 17, 17, 11, 17, 13, 17, 17, 17, 17; int(0..17)],
         [4, 9, 17, 17, 4, 14, 17, 17, 17, 9, 17, 17, 17, 17, 14, 17, 17, 17; int(0..17)],
         [5, 17, 17, 13, 14, 5, 17, 17, 17, 17, 17, 17, 17, 13, 14, 17, 17, 17; int(0..17)],
         [6, 17, 12, 17, 17, 17, 6, 17, 15, 17, 17, 17, 12, 17, 17, 15, 17, 17; int(0..17)],
         [7, 10, 17, 17, 17, 17, 17, 7, 16, 17, 10, 17, 17, 17, 17, 17, 16, 17; int(0..17)],
         [8, 17, 17, 17, 17, 17, 15, 16, 8, 17, 17, 17, 17, 17, 17, 15, 16, 17; int(0..17)],
         [9, 9, 17, 17, 9, 17, 17, 17, 17, 9, 17, 17, 17, 17, 17, 17, 17, 17; int(0..17)],
         [10, 10, 17, 17, 17, 17, 17, 10, 17, 17, 10, 17, 17, 17, 17, 17, 17, 17; int(0..17)],
         [11, 17, 11, 11, 17, 17, 17, 17, 17, 17, 17, 11, 17, 17, 17, 17, 17, 17; int(0..17)],
         [12, 17, 12, 17, 17, 17, 12, 17, 17, 17, 17, 17, 12, 17, 17, 17, 17, 17; int(0..17)],
         [13, 17, 17, 13, 17, 13, 17, 17, 17, 17, 17, 17, 17, 13, 17, 17, 17, 17; int(0..17)],
         [14, 17, 17, 17, 14, 14, 17, 17, 17, 17, 17, 17, 17, 17, 14, 17, 17, 17; int(0..17)],
         [15, 17, 17, 17, 17, 17, 15, 17, 15, 17, 17, 17, 17, 17, 17, 15, 17, 17; int(0..17)],
         [16, 17, 17, 17, 17, 17, 17, 16, 16, 17, 17, 17, 17, 17, 17, 17, 16, 17; int(0..17)],
         [17, 17, 17, 17, 17, 17, 17, 17, 17, 17, 17, 17, 17, 17, 17, 17, 17, 17; int(0..17)];
             int(0..17)]
$ Visualisation for J_FunctionND
$  0  1  2  3  4  5  6  7  8  9 10 11 12 13 14 15 16 17
$  1  1 17 17  9 17 17 10 17  9 10 17 17 17 17 17 17 17
$  2 17  2 11 17 17 12 17 17 17 17 11 12 17 17 17 17 17
$  3 17 11  3 17 13 17 17 17 17 17 11 17 13 17 17 17 17
$  4  9 17 17  4 14 17 17 17  9 17 17 17 17 14 17 17 17
$  5 17 17 13 14  5 17 17 17 17 17 17 17 13 14 17 17 17
$  6 17 12 17 17 17  6 17 15 17 17 17 12 17 17 15 17 17
$  7 10 17 17 17 17 17  7 16 17 10 17 17 17 17 17 16 17
$  8 17 17 17 17 17 15 16  8 17 17 17 17 17 17 15 16 17
$  9  9 17 17  9 17 17 17 17  9 17 17 17 17 17 17 17 17
$ 10 10 17 17 17 17 17 10 17 17 10 17 17 17 17 17 17 17
$ 11 17 11 11 17 17 17 17 17 17 17 11 17 17 17 17 17 17
$ 12 17 12 17 17 17 12 17 17 17 17 17 12 17 17 17 17 17
$ 13 17 17 13 17 13 17 17 17 17 17 17 17 13 17 17 17 17
$ 14 17 17 17 14 14 17 17 17 17 17 17 17 17 14 17 17 17
$ 15 17 17 17 17 17 15 17 15 17 17 17 17 17 17 15 17 17
$ 16 17 17 17 17 17 17 16 16 17 17 17 17 17 17 17 16 17
$ 17 17 17 17 17 17 17 17 17 17 17 17 17 17 17 17 17 17

letting M_FunctionND be
        [[0, 0, 0, 0, 0, 0, 0, 0, 0, 0, 0, 0, 0, 0, 0, 0, 0, 0; int(0..17)],
         [0, 1, 0, 0, 0, 0, 0, 0, 0, 1, 1, 0, 0, 0, 0, 0, 0, 1; int(0..17)],
         [0, 0, 2, 0, 0, 0, 0, 0, 0, 0, 0, 2, 2, 0, 0, 0, 0, 2; int(0..17)],
         [0, 0, 0, 3, 0, 0, 0, 0, 0, 0, 0, 3, 0, 3, 0, 0, 0, 3; int(0..17)],
         [0, 0, 0, 0, 4, 0, 0, 0, 0, 4, 0, 0, 0, 0, 4, 0, 0, 4; int(0..17)],
         [0, 0, 0, 0, 0, 5, 0, 0, 0, 0, 0, 0, 0, 5, 5, 0, 0, 5; int(0..17)],
         [0, 0, 0, 0, 0, 0, 6, 0, 0, 0, 0, 0, 6, 0, 0, 6, 0, 6; int(0..17)],
         [0, 0, 0, 0, 0, 0, 0, 7, 0, 0, 7, 0, 0, 0, 0, 0, 7, 7; int(0..17)],
         [0, 0, 0, 0, 0, 0, 0, 0, 8, 0, 0, 0, 0, 0, 0, 8, 8, 8; int(0..17)],
         [0, 1, 0, 0, 4, 0, 0, 0, 0, 9, 1, 0, 0, 0, 4, 0, 0, 9; int(0..17)],
         [0, 1, 0, 0, 0, 0, 0, 7, 0, 1, 10, 0, 0, 0, 0, 0, 7, 10; int(0..17)],
         [0, 0, 2, 3, 0, 0, 0, 0, 0, 0, 0, 11, 2, 3, 0, 0, 0, 11; int(0..17)],
         [0, 0, 2, 0, 0, 0, 6, 0, 0, 0, 0, 2, 12, 0, 0, 6, 0, 12; int(0..17)],
         [0, 0, 0, 3, 0, 5, 0, 0, 0, 0, 0, 3, 0, 13, 5, 0, 0, 13; int(0..17)],
         [0, 0, 0, 0, 4, 5, 0, 0, 0, 4, 0, 0, 0, 5, 14, 0, 0, 14; int(0..17)],
         [0, 0, 0, 0, 0, 0, 6, 0, 8, 0, 0, 0, 6, 0, 0, 15, 8, 15; int(0..17)],
         [0, 0, 0, 0, 0, 0, 0, 7, 8, 0, 7, 0, 0, 0, 0, 8, 16, 16; int(0..17)],
         [0, 1, 2, 3, 4, 5, 6, 7, 8, 9, 10, 11, 12, 13, 14, 15, 16, 17; int(0..17)];
             int(0..17)]
$ Visualisation for M_FunctionND
$  0  0  0  0  0  0  0  0  0  0  0  0  0  0  0  0  0  0
$  0  1  0  0  0  0  0  0  0  1  1  0  0  0  0  0  0  1
$  0  0  2  0  0  0  0  0  0  0  0  2  2  0  0  0  0  2
$  0  0  0  3  0  0  0  0  0  0  0  3  0  3  0  0  0  3
$  0  0  0  0  4  0  0  0  0  4  0  0  0  0  4  0  0  4
$  0  0  0  0  0  5  0  0  0  0  0  0  0  5  5  0  0  5
$  0  0  0  0  0  0  6  0  0  0  0  0  6  0  0  6  0  6
$  0  0  0  0  0  0  0  7  0  0  7  0  0  0  0  0  7  7
$  0  0  0  0  0  0  0  0  8  0  0  0  0  0  0  8  8  8
$  0  1  0  0  4  0  0  0  0  9  1  0  0  0  4  0  0  9
$  0  1  0  0  0  0  0  7  0  1 10  0  0  0  0  0  7 10
$  0  0  2  3  0  0  0  0  0  0  0 11  2  3  0  0  0 11
$  0  0  2  0  0  0  6  0  0  0  0  2 12  0  0  6  0 12
$  0  0  0  3  0  5  0  0  0  0  0  3  0 13  5  0  0 13
$  0  0  0  0  4  5  0  0  0  4  0  0  0  5 14  0  0 14
$  0  0  0  0  0  0  6  0  8  0  0  0  6  0  0 15  8 15
$  0  0  0  0  0  0  0  7  8  0  7  0  0  0  0  8 16 16
$  0  1  2  3  4  5  6  7  8  9 10 11 12 13 14 15 16 17

letting R_Function1D be [0, 1, 1, 1, 1, 1, 1, 1, 1, 2, 2, 2, 2, 2, 2, 2, 2, 3; int(0..17)]
